ilp_joint/output/camouflage_ilp.lp
Maximize
  0.0584362043778925 Z_196_9_0 + 0.1083518542221498 Z_196_9_1
   + 0.0330511862257583 Z_196_9_2 + 0.0181503404701349 Z_196_9_3
   + 0.6820104147040643 Z_196_9_4 + 5.0305212594629564e-04 Z_196_4_0
   + 0.0175318668069432 Z_196_4_1 + 0.2198325055740127 Z_196_4_2
   + 0.032578242544875 Z_196_4_3 + 0.6295543329482226 Z_196_4_4
   + 0.0108841200204802 Z_196_2_0 + 0.0304876231283508 Z_196_2_1
   + 0.2008681207234552 Z_196_2_2 + 0.0146353756337298 Z_196_2_3
   + 0.643124760493984 Z_196_2_4 + 0.0191402430875514 Z_196_7_0
   + 0.0221325182452459 Z_196_7_1 + 0.0236771810851555 Z_196_7_2
   + 0.00317254777425171 Z_196_7_3 + 0.8318775098077956 Z_196_7_4
   + 0.00121790100585119 Z_196_1_0 + 9.8760218989465249e-04 Z_196_1_1
   + 0.0241519168508596 Z_196_1_2 + 0.00453971458453247 Z_196_1_3
   + 0.8691028653688621 Z_196_1_4 + 7.9976837921226355e-04 Z_196_3_0
   + 0.00131369958446683 Z_196_3_1 + 0.0500514731586455 Z_196_3_2
   + 0.00761574036904728 Z_196_3_3 + 0.8402193185086281 Z_196_3_4
   + 0.4685876022751236 Z_196_5_0 + 0.2248669664199829 Z_196_5_1
   + 0.00584570877720098 Z_196_5_2 + 0.00937827533923776 Z_196_5_3
   + 0.1913214471884546 Z_196_5_4 + 0.016552240622078 Z_196_8_0
   + 0.5199558478511636 Z_196_8_1 + 0.0195544590487171 Z_196_8_2
   + 7.3166454756066546e-04 Z_196_8_3 + 0.3432057879304806 Z_196_8_4
   + 7.9976837921226355e-04 Z_196_6_0 + 0.00131369958446683 Z_196_6_1
   + 0.0500514731586455 Z_196_6_2 + 0.00761574036904728 Z_196_6_3
   + 0.8402193185086281 Z_196_6_4 + 0.000301111 Z_208_0_0
   + 0.00557733 Z_208_0_1 + 0.00732214163945426 Z_208_0_2
   + 0.8310436269444538 Z_208_0_3 + 0.0557557902417594 Z_208_0_4
   + 0.00742417594907429 Z_269_1_0 + 0.0701956335787852 Z_269_1_1
   + 0.0349941657009166 Z_269_1_2 + 0.1197416599833606 Z_269_1_3
   + 0.6676443647878633 Z_269_1_4 + 1.0562121975359958e-04 Z_269_2_0
   + 0.00180400968313643 Z_269_2_1 + 0.0490373775347109 Z_269_2_2
   + 0.8300369487604657 Z_269_2_3 + 0.0190160428019333 Z_269_2_4
   + 1.0562121975359958e-04 Z_269_0_0 + 0.00180400968313643 Z_269_0_1
   + 0.0490373775347109 Z_269_0_2 + 0.8300369487604657 Z_269_0_3
   + 0.0190160428019333 Z_269_0_4 + 0.00262594181847006 Z_455_1_0
   + 0.00111531602668866 Z_455_1_1 + 0.7236613920637176 Z_455_1_2
   + 0.00330973756932956 Z_455_1_3 + 0.1692876125217942 Z_455_1_4
   + 0.00262594181847006 Z_455_0_0 + 0.00111531602668866 Z_455_0_1
   + 0.7236613920637176 Z_455_0_2 + 0.00330973756932956 Z_455_0_3
   + 0.1692876125217942 Z_455_0_4 + 5.7115216564108495e-04 Z_555_0_0
   + 0.00162319962375603 Z_555_0_1 + 0.00625209830436625 Z_555_0_2
   + 0.1351932961009871 Z_555_0_3 + 0.7563602538052496 Z_555_0_4
   + 1.0664054315532947e-04 Z_179_0_0 + 0.000760311 Z_179_0_1
   + 0.0579864820910169 Z_179_0_2 + 0.8153190579359948 Z_179_0_3
   + 0.0258275084138044 Z_179_0_4 + 0.1037095177750892 Z_228_0_0
   + 0.5763942819086545 Z_228_0_1 + 0.00438826624902902 Z_228_0_2
   + 0.1041675296008092 Z_228_0_3 + 0.111340404466418 Z_228_0_4
   + 4.3417311726646948e-04 Z_501_0_0 + 0.00213849101074734 Z_501_0_1
   + 0.0577602292880051 Z_501_0_2 + 0.8095997793781764 Z_501_0_3
   + 0.0300673272058046 Z_501_0_4 + 1.3925444763983154e-04 Z_393_4_0
   + 0.00368919948757222 Z_393_4_1 + 0.8129016451052674 Z_393_4_2
   + 0.00582914674494341 Z_393_4_3 + 0.0774407542145772 Z_393_4_4
   + 5.3516670909655123e-04 Z_393_3_0 + 0.00480901068268752 Z_393_3_1
   + 0.2111959110990499 Z_393_3_2 + 0.1565034596894479 Z_393_3_3
   + 0.5269564518197181 Z_393_3_4 + 2.0530915426757027e-04 Z_393_2_0
   + 9.5517517360745074e-04 Z_393_2_1 + 0.1020148526537487 Z_393_2_2
   + 0.0132952712515965 Z_393_2_3 + 0.7835293917667797 Z_393_2_4
   + 0.0093662490091832 Z_393_1_0 + 0.00676376232787133 Z_393_1_1
   + 0.0091763419503708 Z_393_1_2 + 0.00357228139565504 Z_393_1_3
   + 0.8711213653169196 Z_393_1_4 + 9.8254917113363969e-04 Z_393_0_0
   + 0.00252218663101357 Z_393_0_1 + 0.00657233827547942 Z_393_0_2
   + 0.2460953636275512 Z_393_0_3 + 0.6438275622948222 Z_393_0_4
   + 0.0145496942986368 Z_393_5_0 + 0.0191143275953381 Z_393_5_1
   + 0.00192632184685863 Z_393_5_2 + 0.2053401267494832 Z_393_5_3
   + 0.6590695295096833 Z_393_5_4 + 9.8254917113363969e-04 Z_393_6_0
   + 0.00252218663101357 Z_393_6_1 + 0.00657233827547942 Z_393_6_2
   + 0.2460953636275512 Z_393_6_3 + 0.6438275622948222 Z_393_6_4
   + 8.25998e-05 Z_609_0_0 + 0.00688360699097377 Z_609_0_1
   + 0.7596217424539444 Z_609_0_2 + 0.00255853689930208 Z_609_0_3
   + 0.1308535138559572 Z_609_0_4 + 1.4012980252581578e-04 Z_463_0_0
   + 0.00222526417175144 Z_463_0_1 + 0.7578614253998898 Z_463_0_2
   + 0.00243136766636211 Z_463_0_3 + 0.1373418129594708 Z_463_0_4
   + 1.0562121975359958e-04 Z_275_0_0 + 0.00180400968313643 Z_275_0_1
   + 0.0490373775347109 Z_275_0_2 + 0.8300369487604657 Z_275_0_3
   + 0.0190160428019333 Z_275_0_4 + 0.1037095177750892 Z_738_0_0
   + 0.5763942819086545 Z_738_0_1 + 0.00438826624902902 Z_738_0_2
   + 0.1041675296008092 Z_738_0_3 + 0.111340404466418 Z_738_0_4
   + 0.00876383643719999 Z_481_0_0 + 0.0280294603860017 Z_481_0_1
   + 9.1801658654092034e-04 Z_481_0_2 + 0.0514139626282875 Z_481_0_3
   + 0.8108747239619697 Z_481_0_4 + 0.00834680469498641 Z_66_0_0
   + 0.7135554979253136 Z_66_0_1 + 0.0018019133298112 Z_66_0_2
   + 0.00885908454554594 Z_66_0_3 + 0.1674366995043429 Z_66_0_4
   + 0.0171814089811596 Z_533_4_0 + 0.00681377229970478 Z_533_4_1
   + 0.0047483886213796 Z_533_4_2 + 0.0317972825621989 Z_533_4_3
   + 0.8394591475355572 Z_533_4_4 + 0.00477650737008596 Z_533_1_0
   + 0.0030533124606009 Z_533_1_1 + 0.0464212632640126 Z_533_1_2
   + 0.00985826734321698 Z_533_1_3 + 0.8358906495620836 Z_533_1_4
   + 4.449353517239253e-04 Z_533_2_0 + 2.8836433685224688e-04 Z_533_2_1
   + 0.00307431737390245 Z_533_2_2 + 0.00247897589963485 Z_533_2_3
   + 0.8937134070378864 Z_533_2_4 + 2.2328355085395816e-04 Z_533_0_0
   + 0.00192222196029255 Z_533_0_1 + 0.0276796880484503 Z_533_0_2
   + 0.7533518943218876 Z_533_0_3 + 0.1168229121185156 Z_533_0_4
   + 0.0441044126400293 Z_533_5_0 + 0.0187917087834837 Z_533_5_1
   + 0.0080340014235096 Z_533_5_2 + 0.0174588240434592 Z_533_5_3
   + 0.8116110531095182 Z_533_5_4 + 2.2328355085395816e-04 Z_533_3_0
   + 0.00192222196029255 Z_533_3_1 + 0.0276796880484503 Z_533_3_2
   + 0.7533518943218876 Z_533_3_3 + 0.1168229121185156 Z_533_3_4
   + 2.2328355085395816e-04 Z_533_6_0 + 0.00192222196029255 Z_533_6_1
   + 0.0276796880484503 Z_533_6_2 + 0.7533518943218876 Z_533_6_3
   + 0.1168229121185156 Z_533_6_4
Subject To
 constraint1_1969: Z_196_9_0 + Z_196_9_1 + Z_196_9_2 + Z_196_9_3
   + Z_196_9_4 <= 1
 constraint1_1964: Z_196_4_0 + Z_196_4_1 + Z_196_4_2 + Z_196_4_3
   + Z_196_4_4 <= 1
 constraint1_1962: Z_196_2_0 + Z_196_2_1 + Z_196_2_2 + Z_196_2_3
   + Z_196_2_4 <= 1
 constraint1_1967: Z_196_7_0 + Z_196_7_1 + Z_196_7_2 + Z_196_7_3
   + Z_196_7_4 <= 1
 constraint1_1961: Z_196_1_0 + Z_196_1_1 + Z_196_1_2 + Z_196_1_3
   + Z_196_1_4 <= 1
 constraint1_1963: Z_196_3_0 + Z_196_3_1 + Z_196_3_2 + Z_196_3_3
   + Z_196_3_4 <= 1
 constraint1_1965: Z_196_5_0 + Z_196_5_1 + Z_196_5_2 + Z_196_5_3
   + Z_196_5_4 <= 1
 constraint1_1968: Z_196_8_0 + Z_196_8_1 + Z_196_8_2 + Z_196_8_3
   + Z_196_8_4 <= 1
 constraint1_1966: Z_196_6_0 + Z_196_6_1 + Z_196_6_2 + Z_196_6_3
   + Z_196_6_4 <= 1
 constraint1_2080: Z_208_0_0 + Z_208_0_1 + Z_208_0_2 + Z_208_0_3
   + Z_208_0_4 <= 1
 constraint1_2691: Z_269_1_0 + Z_269_1_1 + Z_269_1_2 + Z_269_1_3
   + Z_269_1_4 <= 1
 constraint1_2692: Z_269_2_0 + Z_269_2_1 + Z_269_2_2 + Z_269_2_3
   + Z_269_2_4 <= 1
 constraint1_2690: Z_269_0_0 + Z_269_0_1 + Z_269_0_2 + Z_269_0_3
   + Z_269_0_4 <= 1
 constraint1_4551: Z_455_1_0 + Z_455_1_1 + Z_455_1_2 + Z_455_1_3
   + Z_455_1_4 <= 1
 constraint1_4550: Z_455_0_0 + Z_455_0_1 + Z_455_0_2 + Z_455_0_3
   + Z_455_0_4 <= 1
 constraint1_5550: Z_555_0_0 + Z_555_0_1 + Z_555_0_2 + Z_555_0_3
   + Z_555_0_4 <= 1
 constraint1_1790: Z_179_0_0 + Z_179_0_1 + Z_179_0_2 + Z_179_0_3
   + Z_179_0_4 <= 1
 constraint1_2280: Z_228_0_0 + Z_228_0_1 + Z_228_0_2 + Z_228_0_3
   + Z_228_0_4 <= 1
 constraint1_5010: Z_501_0_0 + Z_501_0_1 + Z_501_0_2 + Z_501_0_3
   + Z_501_0_4 <= 1
 constraint1_3934: Z_393_4_0 + Z_393_4_1 + Z_393_4_2 + Z_393_4_3
   + Z_393_4_4 <= 1
 constraint1_3933: Z_393_3_0 + Z_393_3_1 + Z_393_3_2 + Z_393_3_3
   + Z_393_3_4 <= 1
 constraint1_3932: Z_393_2_0 + Z_393_2_1 + Z_393_2_2 + Z_393_2_3
   + Z_393_2_4 <= 1
 constraint1_3931: Z_393_1_0 + Z_393_1_1 + Z_393_1_2 + Z_393_1_3
   + Z_393_1_4 <= 1
 constraint1_3930: Z_393_0_0 + Z_393_0_1 + Z_393_0_2 + Z_393_0_3
   + Z_393_0_4 <= 1
 constraint1_3935: Z_393_5_0 + Z_393_5_1 + Z_393_5_2 + Z_393_5_3
   + Z_393_5_4 <= 1
 constraint1_3936: Z_393_6_0 + Z_393_6_1 + Z_393_6_2 + Z_393_6_3
   + Z_393_6_4 <= 1
 constraint1_6090: Z_609_0_0 + Z_609_0_1 + Z_609_0_2 + Z_609_0_3
   + Z_609_0_4 <= 1
 constraint1_4630: Z_463_0_0 + Z_463_0_1 + Z_463_0_2 + Z_463_0_3
   + Z_463_0_4 <= 1
 constraint1_2750: Z_275_0_0 + Z_275_0_1 + Z_275_0_2 + Z_275_0_3
   + Z_275_0_4 <= 1
 constraint1_7380: Z_738_0_0 + Z_738_0_1 + Z_738_0_2 + Z_738_0_3
   + Z_738_0_4 <= 1
 constraint1_4810: Z_481_0_0 + Z_481_0_1 + Z_481_0_2 + Z_481_0_3
   + Z_481_0_4 <= 1
 constraint1_660: Z_66_0_0 + Z_66_0_1 + Z_66_0_2 + Z_66_0_3 + Z_66_0_4
   <= 1
 constraint1_5334: Z_533_4_0 + Z_533_4_1 + Z_533_4_2 + Z_533_4_3
   + Z_533_4_4 <= 1
 constraint1_5331: Z_533_1_0 + Z_533_1_1 + Z_533_1_2 + Z_533_1_3
   + Z_533_1_4 <= 1
 constraint1_5332: Z_533_2_0 + Z_533_2_1 + Z_533_2_2 + Z_533_2_3
   + Z_533_2_4 <= 1
 constraint1_5330: Z_533_0_0 + Z_533_0_1 + Z_533_0_2 + Z_533_0_3
   + Z_533_0_4 <= 1
 constraint1_5335: Z_533_5_0 + Z_533_5_1 + Z_533_5_2 + Z_533_5_3
   + Z_533_5_4 <= 1
 constraint1_5333: Z_533_3_0 + Z_533_3_1 + Z_533_3_2 + Z_533_3_3
   + Z_533_3_4 <= 1
 constraint1_5336: Z_533_6_0 + Z_533_6_1 + Z_533_6_2 + Z_533_6_3
   + Z_533_6_4 <= 1
 constraint2_1960: Z_196_9_0 + Z_196_4_0 + Z_196_2_0 + Z_196_7_0
   + Z_196_1_0 + Z_196_3_0 + Z_196_5_0 + Z_196_8_0 + Z_196_6_0 <= 1
 constraint2_1961: Z_196_9_1 + Z_196_4_1 + Z_196_2_1 + Z_196_7_1
   + Z_196_1_1 + Z_196_3_1 + Z_196_5_1 + Z_196_8_1 + Z_196_6_1 <= 1
 constraint2_1962: Z_196_9_2 + Z_196_4_2 + Z_196_2_2 + Z_196_7_2
   + Z_196_1_2 + Z_196_3_2 + Z_196_5_2 + Z_196_8_2 + Z_196_6_2 <= 1
 constraint2_1963: Z_196_9_3 + Z_196_4_3 + Z_196_2_3 + Z_196_7_3
   + Z_196_1_3 + Z_196_3_3 + Z_196_5_3 + Z_196_8_3 + Z_196_6_3 <= 1
 constraint2_2080: Z_208_0_0 <= 1
 constraint2_2081: Z_208_0_1 <= 1
 constraint2_2082: Z_208_0_2 <= 1
 constraint2_2083: Z_208_0_3 <= 1
 constraint2_2690: Z_269_1_0 + Z_269_2_0 + Z_269_0_0 <= 1
 constraint2_2691: Z_269_1_1 + Z_269_2_1 + Z_269_0_1 <= 1
 constraint2_2692: Z_269_1_2 + Z_269_2_2 + Z_269_0_2 <= 1
 constraint2_2693: Z_269_1_3 + Z_269_2_3 + Z_269_0_3 <= 1
 constraint2_3950: <= 1
 constraint2_3951: <= 1
 constraint2_3952: <= 1
 constraint2_3953: <= 1
 constraint2_840: <= 1
 constraint2_841: <= 1
 constraint2_842: <= 1
 constraint2_843: <= 1
 constraint2_3260: <= 1
 constraint2_3261: <= 1
 constraint2_3262: <= 1
 constraint2_3263: <= 1
 constraint2_4550: Z_455_1_0 + Z_455_0_0 <= 1
 constraint2_4551: Z_455_1_1 + Z_455_0_1 <= 1
 constraint2_4552: Z_455_1_2 + Z_455_0_2 <= 1
 constraint2_4553: Z_455_1_3 + Z_455_0_3 <= 1
 constraint2_5550: Z_555_0_0 <= 1
 constraint2_5551: Z_555_0_1 <= 1
 constraint2_5552: Z_555_0_2 <= 1
 constraint2_5553: Z_555_0_3 <= 1
 constraint2_1790: Z_179_0_0 <= 1
 constraint2_1791: Z_179_0_1 <= 1
 constraint2_1792: Z_179_0_2 <= 1
 constraint2_1793: Z_179_0_3 <= 1
 constraint2_920: <= 1
 constraint2_921: <= 1
 constraint2_922: <= 1
 constraint2_923: <= 1
 constraint2_2280: Z_228_0_0 <= 1
 constraint2_2281: Z_228_0_1 <= 1
 constraint2_2282: Z_228_0_2 <= 1
 constraint2_2283: Z_228_0_3 <= 1
 constraint2_5010: Z_501_0_0 <= 1
 constraint2_5011: Z_501_0_1 <= 1
 constraint2_5012: Z_501_0_2 <= 1
 constraint2_5013: Z_501_0_3 <= 1
 constraint2_3930: Z_393_4_0 + Z_393_3_0 + Z_393_2_0 + Z_393_1_0
   + Z_393_0_0 + Z_393_5_0 + Z_393_6_0 <= 1
 constraint2_3931: Z_393_4_1 + Z_393_3_1 + Z_393_2_1 + Z_393_1_1
   + Z_393_0_1 + Z_393_5_1 + Z_393_6_1 <= 1
 constraint2_3932: Z_393_4_2 + Z_393_3_2 + Z_393_2_2 + Z_393_1_2
   + Z_393_0_2 + Z_393_5_2 + Z_393_6_2 <= 1
 constraint2_3933: Z_393_4_3 + Z_393_3_3 + Z_393_2_3 + Z_393_1_3
   + Z_393_0_3 + Z_393_5_3 + Z_393_6_3 <= 1
 constraint2_6090: Z_609_0_0 <= 1
 constraint2_6091: Z_609_0_1 <= 1
 constraint2_6092: Z_609_0_2 <= 1
 constraint2_6093: Z_609_0_3 <= 1
 constraint2_4630: Z_463_0_0 <= 1
 constraint2_4631: Z_463_0_1 <= 1
 constraint2_4632: Z_463_0_2 <= 1
 constraint2_4633: Z_463_0_3 <= 1
 constraint2_2750: Z_275_0_0 <= 1
 constraint2_2751: Z_275_0_1 <= 1
 constraint2_2752: Z_275_0_2 <= 1
 constraint2_2753: Z_275_0_3 <= 1
 constraint2_7380: Z_738_0_0 <= 1
 constraint2_7381: Z_738_0_1 <= 1
 constraint2_7382: Z_738_0_2 <= 1
 constraint2_7383: Z_738_0_3 <= 1
 constraint2_4810: Z_481_0_0 <= 1
 constraint2_4811: Z_481_0_1 <= 1
 constraint2_4812: Z_481_0_2 <= 1
 constraint2_4813: Z_481_0_3 <= 1
 constraint2_660: Z_66_0_0 <= 1
 constraint2_661: Z_66_0_1 <= 1
 constraint2_662: Z_66_0_2 <= 1
 constraint2_663: Z_66_0_3 <= 1
 constraint2_5330: Z_533_4_0 + Z_533_1_0 + Z_533_2_0 + Z_533_0_0
   + Z_533_5_0 + Z_533_3_0 + Z_533_6_0 <= 1
 constraint2_5331: Z_533_4_1 + Z_533_1_1 + Z_533_2_1 + Z_533_0_1
   + Z_533_5_1 + Z_533_3_1 + Z_533_6_1 <= 1
 constraint2_5332: Z_533_4_2 + Z_533_1_2 + Z_533_2_2 + Z_533_0_2
   + Z_533_5_2 + Z_533_3_2 + Z_533_6_2 <= 1
 constraint2_5333: Z_533_4_3 + Z_533_1_3 + Z_533_2_3 + Z_533_0_3
   + Z_533_5_3 + Z_533_3_3 + Z_533_6_3 <= 1
Bounds
Binaries
 Z_196_9_0 Z_196_9_1 Z_196_9_2 Z_196_9_3 Z_196_9_4 Z_196_4_0 Z_196_4_1
 Z_196_4_2 Z_196_4_3 Z_196_4_4 Z_196_2_0 Z_196_2_1 Z_196_2_2 Z_196_2_3
 Z_196_2_4 Z_196_7_0 Z_196_7_1 Z_196_7_2 Z_196_7_3 Z_196_7_4 Z_196_1_0
 Z_196_1_1 Z_196_1_2 Z_196_1_3 Z_196_1_4 Z_196_3_0 Z_196_3_1 Z_196_3_2
 Z_196_3_3 Z_196_3_4 Z_196_5_0 Z_196_5_1 Z_196_5_2 Z_196_5_3 Z_196_5_4
 Z_196_8_0 Z_196_8_1 Z_196_8_2 Z_196_8_3 Z_196_8_4 Z_196_6_0 Z_196_6_1
 Z_196_6_2 Z_196_6_3 Z_196_6_4 Z_208_0_0 Z_208_0_1 Z_208_0_2 Z_208_0_3
 Z_208_0_4 Z_269_1_0 Z_269_1_1 Z_269_1_2 Z_269_1_3 Z_269_1_4 Z_269_2_0
 Z_269_2_1 Z_269_2_2 Z_269_2_3 Z_269_2_4 Z_269_0_0 Z_269_0_1 Z_269_0_2
 Z_269_0_3 Z_269_0_4 Z_455_1_0 Z_455_1_1 Z_455_1_2 Z_455_1_3 Z_455_1_4
 Z_455_0_0 Z_455_0_1 Z_455_0_2 Z_455_0_3 Z_455_0_4 Z_555_0_0 Z_555_0_1
 Z_555_0_2 Z_555_0_3 Z_555_0_4 Z_179_0_0 Z_179_0_1 Z_179_0_2 Z_179_0_3
 Z_179_0_4 Z_228_0_0 Z_228_0_1 Z_228_0_2 Z_228_0_3 Z_228_0_4 Z_501_0_0
 Z_501_0_1 Z_501_0_2 Z_501_0_3 Z_501_0_4 Z_393_4_0 Z_393_4_1 Z_393_4_2
 Z_393_4_3 Z_393_4_4 Z_393_3_0 Z_393_3_1 Z_393_3_2 Z_393_3_3 Z_393_3_4
 Z_393_2_0 Z_393_2_1 Z_393_2_2 Z_393_2_3 Z_393_2_4 Z_393_1_0 Z_393_1_1
 Z_393_1_2 Z_393_1_3 Z_393_1_4 Z_393_0_0 Z_393_0_1 Z_393_0_2 Z_393_0_3
 Z_393_0_4 Z_393_5_0 Z_393_5_1 Z_393_5_2 Z_393_5_3 Z_393_5_4 Z_393_6_0
 Z_393_6_1 Z_393_6_2 Z_393_6_3 Z_393_6_4 Z_609_0_0 Z_609_0_1 Z_609_0_2
 Z_609_0_3 Z_609_0_4 Z_463_0_0 Z_463_0_1 Z_463_0_2 Z_463_0_3 Z_463_0_4
 Z_275_0_0 Z_275_0_1 Z_275_0_2 Z_275_0_3 Z_275_0_4 Z_738_0_0 Z_738_0_1
 Z_738_0_2 Z_738_0_3 Z_738_0_4 Z_481_0_0 Z_481_0_1 Z_481_0_2 Z_481_0_3
 Z_481_0_4 Z_66_0_0 Z_66_0_1 Z_66_0_2 Z_66_0_3 Z_66_0_4 Z_533_4_0 Z_533_4_1
 Z_533_4_2 Z_533_4_3 Z_533_4_4 Z_533_1_0 Z_533_1_1 Z_533_1_2 Z_533_1_3
 Z_533_1_4 Z_533_2_0 Z_533_2_1 Z_533_2_2 Z_533_2_3 Z_533_2_4 Z_533_0_0
 Z_533_0_1 Z_533_0_2 Z_533_0_3 Z_533_0_4 Z_533_5_0 Z_533_5_1 Z_533_5_2
 Z_533_5_3 Z_533_5_4 Z_533_3_0 Z_533_3_1 Z_533_3_2 Z_533_3_3 Z_533_3_4
 Z_533_6_0 Z_533_6_1 Z_533_6_2 Z_533_6_3 Z_533_6_4
End
