ilp_joint/output/camouflage_ilp.mps
NAME camouflage_srl_ilp
* Max problem is converted into Min one
ROWS
 N  OBJ
 L  constraint1_4030
 L  constraint1_5100
 L  constraint1_5102
 L  constraint1_5101
 L  constraint1_1540
 L  constraint1_1541
 L  constraint1_1542
 L  constraint1_1250
 L  constraint1_4330
 L  constraint1_510
 L  constraint1_6270
 L  constraint1_2010
 L  constraint2_4030
 L  constraint2_4031
 L  constraint2_4032
 L  constraint2_4033
 L  constraint2_5100
 L  constraint2_5101
 L  constraint2_5102
 L  constraint2_5103
 L  constraint2_1540
 L  constraint2_1541
 L  constraint2_1542
 L  constraint2_1543
 L  constraint2_1250
 L  constraint2_1251
 L  constraint2_1252
 L  constraint2_1253
 L  constraint2_4330
 L  constraint2_4331
 L  constraint2_4332
 L  constraint2_4333
 L  constraint2_510
 L  constraint2_511
 L  constraint2_512
 L  constraint2_513
 L  constraint2_6270
 L  constraint2_6271
 L  constraint2_6272
 L  constraint2_6273
 L  constraint2_2010
 L  constraint2_2011
 L  constraint2_2012
 L  constraint2_2013
COLUMNS
    MARKER    'MARKER'                 'INTORG'
    Z_403_0_0  OBJ       -7.7578045027979379e-03
    Z_403_0_0  constraint1_4030  1
    Z_403_0_0  constraint2_4030  1
    Z_403_0_1  OBJ       -1.9147354827259211e-02
    Z_403_0_1  constraint1_4030  1
    Z_403_0_1  constraint2_4031  1
    Z_403_0_2  OBJ       -6.1763684105973320e-02
    Z_403_0_2  constraint1_4030  1
    Z_403_0_2  constraint2_4032  1
    Z_403_0_3  OBJ       -7.6907615531015416e-01
    Z_403_0_3  constraint1_4030  1
    Z_403_0_3  constraint2_4033  1
    Z_510_0_0  OBJ       -4.1944208096589162e-03
    Z_510_0_0  constraint1_5100  1
    Z_510_0_0  constraint2_5100  1
    Z_510_0_1  OBJ       -1.0199590185371045e-02
    Z_510_0_1  constraint1_5100  1
    Z_510_0_1  constraint2_5101  1
    Z_510_0_2  OBJ       -3.0502889869723326e-01
    Z_510_0_2  constraint1_5100  1
    Z_510_0_2  constraint2_5102  1
    Z_510_0_3  OBJ       -7.5641620072625071e-01
    Z_510_0_3  constraint1_5100  1
    Z_510_0_3  constraint2_5103  1
    Z_510_2_0  OBJ       -4.1944208096589162e-03
    Z_510_2_0  constraint1_5102  1
    Z_510_2_0  constraint2_5100  1
    Z_510_2_1  OBJ       -1.0199590185371045e-02
    Z_510_2_1  constraint1_5102  1
    Z_510_2_1  constraint2_5101  1
    Z_510_2_2  OBJ       -3.0502889869723326e-01
    Z_510_2_2  constraint1_5102  1
    Z_510_2_2  constraint2_5102  1
    Z_510_2_3  OBJ       -7.5641620072625071e-01
    Z_510_2_3  constraint1_5102  1
    Z_510_2_3  constraint2_5103  1
    Z_510_1_0  OBJ       -1.3292655084197436e-02
    Z_510_1_0  constraint1_5101  1
    Z_510_1_0  constraint2_5100  1
    Z_510_1_1  OBJ       -6.3317843371099289e-02
    Z_510_1_1  constraint1_5101  1
    Z_510_1_1  constraint2_5101  1
    Z_510_1_2  OBJ       -4.3496786776925693e-02
    Z_510_1_2  constraint1_5101  1
    Z_510_1_2  constraint2_5102  1
    Z_510_1_3  OBJ       -1.4209235382753702e-01
    Z_510_1_3  constraint1_5101  1
    Z_510_1_3  constraint2_5103  1
    Z_154_0_0  OBJ       -1.0939020528394006e-02
    Z_154_0_0  constraint1_1540  1
    Z_154_0_0  constraint2_1540  1
    Z_154_0_1  OBJ       -3.5415295818495896e-03
    Z_154_0_1  constraint1_1540  1
    Z_154_0_1  constraint2_1541  1
    Z_154_0_2  OBJ       -6.4914990523908978e-01
    Z_154_0_2  constraint1_1540  1
    Z_154_0_2  constraint2_1542  1
    Z_154_0_3  OBJ       -2.1912661905292747e-02
    Z_154_0_3  constraint1_1540  1
    Z_154_0_3  constraint2_1543  1
    Z_154_1_0  OBJ       -1.0939020528394006e-02
    Z_154_1_0  constraint1_1541  1
    Z_154_1_0  constraint2_1540  1
    Z_154_1_1  OBJ       -3.5415295818495896e-03
    Z_154_1_1  constraint1_1541  1
    Z_154_1_1  constraint2_1541  1
    Z_154_1_2  OBJ       -6.4914990523908978e-01
    Z_154_1_2  constraint1_1541  1
    Z_154_1_2  constraint2_1542  1
    Z_154_1_3  OBJ       -2.1912661905292747e-02
    Z_154_1_3  constraint1_1541  1
    Z_154_1_3  constraint2_1543  1
    Z_154_2_0  OBJ       -1.7129326917496240e-01
    Z_154_2_0  constraint1_1542  1
    Z_154_2_0  constraint2_1540  1
    Z_154_2_1  OBJ       -6.8752418414987332e-02
    Z_154_2_1  constraint1_1542  1
    Z_154_2_1  constraint2_1541  1
    Z_154_2_2  OBJ       -2.3579052420835567e-02
    Z_154_2_2  constraint1_1542  1
    Z_154_2_2  constraint2_1542  1
    Z_154_2_3  OBJ       -5.2492059340578004e-02
    Z_154_2_3  constraint1_1542  1
    Z_154_2_3  constraint2_1543  1
    Z_125_0_0  OBJ       -3.2645557364931244e-02
    Z_125_0_0  constraint1_1250  1
    Z_125_0_0  constraint2_1250  1
    Z_125_0_1  OBJ       -6.5443394281990552e-01
    Z_125_0_1  constraint1_1250  1
    Z_125_0_1  constraint2_1251  1
    Z_125_0_2  OBJ       -8.0269718430450616e-03
    Z_125_0_2  constraint1_1250  1
    Z_125_0_2  constraint2_1252  1
    Z_125_0_3  OBJ       -3.7841637230584931e-02
    Z_125_0_3  constraint1_1250  1
    Z_125_0_3  constraint2_1253  1
    Z_433_0_0  OBJ       -8.5353770720325475e-02
    Z_433_0_0  constraint1_4330  1
    Z_433_0_0  constraint2_4330  1
    Z_433_0_1  OBJ       -4.4751015116704596e-01
    Z_433_0_1  constraint1_4330  1
    Z_433_0_1  constraint2_4331  1
    Z_433_0_2  OBJ       -8.3834956389401537e-03
    Z_433_0_2  constraint1_4330  1
    Z_433_0_2  constraint2_4332  1
    Z_433_0_3  OBJ       -1.7456750902588591e-01
    Z_433_0_3  constraint1_4330  1
    Z_433_0_3  constraint2_4333  1
    Z_51_0_0  OBJ       -2.9089650990814175e-02
    Z_51_0_0  constraint1_510  1
    Z_51_0_0  constraint2_510  1
    Z_51_0_1  OBJ       -1.2930437912628975e-01
    Z_51_0_1  constraint1_510  1
    Z_51_0_1  constraint2_511  1
    Z_51_0_2  OBJ       -3.2710392803404868e-02
    Z_51_0_2  constraint1_510  1
    Z_51_0_2  constraint2_512  1
    Z_51_0_3  OBJ       -1.5997557363074269e-01
    Z_51_0_3  constraint1_510  1
    Z_51_0_3  constraint2_513  1
    Z_627_0_0  OBJ       -8.5353770720325475e-02
    Z_627_0_0  constraint1_6270  1
    Z_627_0_0  constraint2_6270  1
    Z_627_0_1  OBJ       -4.4751015116704596e-01
    Z_627_0_1  constraint1_6270  1
    Z_627_0_1  constraint2_6271  1
    Z_627_0_2  OBJ       -8.3834956389401537e-03
    Z_627_0_2  constraint1_6270  1
    Z_627_0_2  constraint2_6272  1
    Z_627_0_3  OBJ       -1.7456750902588591e-01
    Z_627_0_3  constraint1_6270  1
    Z_627_0_3  constraint2_6273  1
    Z_201_0_0  OBJ       -3.5280516642368802e-02
    Z_201_0_0  constraint1_2010  1
    Z_201_0_0  constraint2_2010  1
    Z_201_0_1  OBJ       -4.3114903995638221e-02
    Z_201_0_1  constraint1_2010  1
    Z_201_0_1  constraint2_2011  1
    Z_201_0_2  OBJ       -4.8095603247215518e-03
    Z_201_0_2  constraint1_2010  1
    Z_201_0_2  constraint2_2012  1
    Z_201_0_3  OBJ       -1.2049469269803324e-01
    Z_201_0_3  constraint1_2010  1
    Z_201_0_3  constraint2_2013  1
    MARKER    'MARKER'                 'INTEND'
RHS
    RHS1      constraint1_4030  1
    RHS1      constraint1_5100  1
    RHS1      constraint1_5102  1
    RHS1      constraint1_5101  1
    RHS1      constraint1_1540  1
    RHS1      constraint1_1541  1
    RHS1      constraint1_1542  1
    RHS1      constraint1_1250  1
    RHS1      constraint1_4330  1
    RHS1      constraint1_510  1
    RHS1      constraint1_6270  1
    RHS1      constraint1_2010  1
    RHS1      constraint2_4030  1
    RHS1      constraint2_4031  1
    RHS1      constraint2_4032  1
    RHS1      constraint2_4033  1
    RHS1      constraint2_5100  1
    RHS1      constraint2_5101  1
    RHS1      constraint2_5102  1
    RHS1      constraint2_5103  1
    RHS1      constraint2_1540  1
    RHS1      constraint2_1541  1
    RHS1      constraint2_1542  1
    RHS1      constraint2_1543  1
    RHS1      constraint2_1250  1
    RHS1      constraint2_1251  1
    RHS1      constraint2_1252  1
    RHS1      constraint2_1253  1
    RHS1      constraint2_4330  1
    RHS1      constraint2_4331  1
    RHS1      constraint2_4332  1
    RHS1      constraint2_4333  1
    RHS1      constraint2_510  1
    RHS1      constraint2_511  1
    RHS1      constraint2_512  1
    RHS1      constraint2_513  1
    RHS1      constraint2_6270  1
    RHS1      constraint2_6271  1
    RHS1      constraint2_6272  1
    RHS1      constraint2_6273  1
    RHS1      constraint2_2010  1
    RHS1      constraint2_2011  1
    RHS1      constraint2_2012  1
    RHS1      constraint2_2013  1
BOUNDS
 UP BND1      Z_403_0_0  1
 UP BND1      Z_403_0_1  1
 UP BND1      Z_403_0_2  1
 UP BND1      Z_403_0_3  1
 UP BND1      Z_510_0_0  1
 UP BND1      Z_510_0_1  1
 UP BND1      Z_510_0_2  1
 UP BND1      Z_510_0_3  1
 UP BND1      Z_510_2_0  1
 UP BND1      Z_510_2_1  1
 UP BND1      Z_510_2_2  1
 UP BND1      Z_510_2_3  1
 UP BND1      Z_510_1_0  1
 UP BND1      Z_510_1_1  1
 UP BND1      Z_510_1_2  1
 UP BND1      Z_510_1_3  1
 UP BND1      Z_154_0_0  1
 UP BND1      Z_154_0_1  1
 UP BND1      Z_154_0_2  1
 UP BND1      Z_154_0_3  1
 UP BND1      Z_154_1_0  1
 UP BND1      Z_154_1_1  1
 UP BND1      Z_154_1_2  1
 UP BND1      Z_154_1_3  1
 UP BND1      Z_154_2_0  1
 UP BND1      Z_154_2_1  1
 UP BND1      Z_154_2_2  1
 UP BND1      Z_154_2_3  1
 UP BND1      Z_125_0_0  1
 UP BND1      Z_125_0_1  1
 UP BND1      Z_125_0_2  1
 UP BND1      Z_125_0_3  1
 UP BND1      Z_433_0_0  1
 UP BND1      Z_433_0_1  1
 UP BND1      Z_433_0_2  1
 UP BND1      Z_433_0_3  1
 UP BND1      Z_51_0_0  1
 UP BND1      Z_51_0_1  1
 UP BND1      Z_51_0_2  1
 UP BND1      Z_51_0_3  1
 UP BND1      Z_627_0_0  1
 UP BND1      Z_627_0_1  1
 UP BND1      Z_627_0_2  1
 UP BND1      Z_627_0_3  1
 UP BND1      Z_201_0_0  1
 UP BND1      Z_201_0_1  1
 UP BND1      Z_201_0_2  1
 UP BND1      Z_201_0_3  1
QUADOBJ
    Z_403_0_0  Z_154_0_0  -1.1610678472274399e-03
    Z_403_0_0  Z_154_1_0  -1.1610678472274399e-03
    Z_403_0_0  Z_125_0_0  -6.8944361316147741e-04
    Z_403_0_1  Z_154_0_1  -1.1610678472274399e-03
    Z_403_0_1  Z_154_1_1  -1.1610678472274399e-03
    Z_403_0_1  Z_125_0_1  -6.8944361316147741e-04
    Z_403_0_2  Z_154_0_2  -1.1610678472274399e-03
    Z_403_0_2  Z_154_1_2  -1.1610678472274399e-03
    Z_403_0_2  Z_125_0_2  -6.8944361316147741e-04
    Z_403_0_3  Z_154_0_3  -1.1610678472274399e-03
    Z_403_0_3  Z_154_1_3  -1.1610678472274399e-03
    Z_403_0_3  Z_125_0_3  -6.8944361316147741e-04
    Z_510_0_0  Z_125_0_0  -1.7044510036229712e-07
    Z_510_0_0  Z_201_0_0  -1.0330578512396693e-04
    Z_510_0_1  Z_125_0_1  -1.7044510036229712e-07
    Z_510_0_1  Z_201_0_1  -1.0330578512396693e-04
    Z_510_0_2  Z_125_0_2  -1.7044510036229712e-07
    Z_510_0_2  Z_201_0_2  -1.0330578512396693e-04
    Z_510_0_3  Z_125_0_3  -1.7044510036229712e-07
    Z_510_0_3  Z_201_0_3  -1.0330578512396693e-04
    Z_510_2_0  Z_154_0_0  -2.4187125947811123e-03
    Z_510_2_0  Z_154_1_0  -2.4187125947811123e-03
    Z_510_2_0  Z_125_0_0  -1.7044510036229712e-07
    Z_510_2_0  Z_201_0_0  -2.1281365981439387e-05
    Z_510_2_1  Z_154_0_1  -2.4187125947811123e-03
    Z_510_2_1  Z_154_1_1  -2.4187125947811123e-03
    Z_510_2_1  Z_125_0_1  -1.7044510036229712e-07
    Z_510_2_1  Z_201_0_1  -2.1281365981439387e-05
    Z_510_2_2  Z_154_0_2  -2.4187125947811123e-03
    Z_510_2_2  Z_154_1_2  -2.4187125947811123e-03
    Z_510_2_2  Z_125_0_2  -1.7044510036229712e-07
    Z_510_2_2  Z_201_0_2  -2.1281365981439387e-05
    Z_510_2_3  Z_154_0_3  -2.4187125947811123e-03
    Z_510_2_3  Z_154_1_3  -2.4187125947811123e-03
    Z_510_2_3  Z_125_0_3  -1.7044510036229712e-07
    Z_510_2_3  Z_201_0_3  -2.1281365981439387e-05
    Z_510_1_0  Z_154_0_0  -3.0462514237243831e-03
    Z_510_1_0  Z_154_1_0  -3.0462514237243831e-03
    Z_510_1_1  Z_154_0_1  -3.0462514237243831e-03
    Z_510_1_1  Z_154_1_1  -3.0462514237243831e-03
    Z_510_1_2  Z_154_0_2  -3.0462514237243831e-03
    Z_510_1_2  Z_154_1_2  -3.0462514237243831e-03
    Z_510_1_3  Z_154_0_3  -3.0462514237243831e-03
    Z_510_1_3  Z_154_1_3  -3.0462514237243831e-03
    Z_154_1_0  Z_125_0_0  -4.3090225822592330e-03
    Z_154_1_0  Z_433_0_0  -1.3018723559119896e-02
    Z_154_1_0  Z_627_0_0  -1.3018723559119896e-02
    Z_154_1_1  Z_125_0_1  -4.3090225822592330e-03
    Z_154_1_1  Z_433_0_1  -1.3018723559119896e-02
    Z_154_1_1  Z_627_0_1  -1.3018723559119896e-02
    Z_154_1_2  Z_125_0_2  -4.3090225822592330e-03
    Z_154_1_2  Z_433_0_2  -1.3018723559119896e-02
    Z_154_1_2  Z_627_0_2  -1.3018723559119896e-02
    Z_154_1_3  Z_125_0_3  -4.3090225822592330e-03
    Z_154_1_3  Z_433_0_3  -1.3018723559119896e-02
    Z_154_1_3  Z_627_0_3  -1.3018723559119896e-02
    Z_154_2_0  Z_125_0_0  -4.3090225822592330e-03
    Z_154_2_0  Z_433_0_0  -1.3018723559119896e-02
    Z_154_2_0  Z_627_0_0  -1.3018723559119896e-02
    Z_154_2_1  Z_125_0_1  -4.3090225822592330e-03
    Z_154_2_1  Z_433_0_1  -1.3018723559119896e-02
    Z_154_2_1  Z_627_0_1  -1.3018723559119896e-02
    Z_154_2_2  Z_125_0_2  -4.3090225822592330e-03
    Z_154_2_2  Z_433_0_2  -1.3018723559119896e-02
    Z_154_2_2  Z_627_0_2  -1.3018723559119896e-02
    Z_154_2_3  Z_125_0_3  -4.3090225822592330e-03
    Z_154_2_3  Z_433_0_3  -1.3018723559119896e-02
    Z_154_2_3  Z_627_0_3  -1.3018723559119896e-02
    Z_125_0_0  Z_433_0_0  -1.4593016137931444e-02
    Z_125_0_0  Z_627_0_0  -1.4593016137931444e-02
    Z_125_0_0  Z_201_0_0  -3.5611756878175486e-05
    Z_125_0_1  Z_433_0_1  -1.4593016137931444e-02
    Z_125_0_1  Z_627_0_1  -1.4593016137931444e-02
    Z_125_0_1  Z_201_0_1  -3.5611756878175486e-05
    Z_125_0_2  Z_433_0_2  -1.4593016137931444e-02
    Z_125_0_2  Z_627_0_2  -1.4593016137931444e-02
    Z_125_0_2  Z_201_0_2  -3.5611756878175486e-05
    Z_125_0_3  Z_433_0_3  -1.4593016137931444e-02
    Z_125_0_3  Z_627_0_3  -1.4593016137931444e-02
    Z_125_0_3  Z_201_0_3  -3.5611756878175486e-05
    Z_433_0_0  Z_627_0_0  -1.9999999999999996e-01
    Z_433_0_0  Z_201_0_0  -3.7024963779412529e-03
    Z_433_0_1  Z_627_0_1  -1.9999999999999996e-01
    Z_433_0_1  Z_201_0_1  -3.7024963779412529e-03
    Z_433_0_2  Z_627_0_2  -1.9999999999999996e-01
    Z_433_0_2  Z_201_0_2  -3.7024963779412529e-03
    Z_433_0_3  Z_627_0_3  -1.9999999999999996e-01
    Z_433_0_3  Z_201_0_3  -3.7024963779412529e-03
    Z_51_0_0  Z_201_0_0  -2.7412494977470218e-02
    Z_51_0_1  Z_201_0_1  -2.7412494977470218e-02
    Z_51_0_2  Z_201_0_2  -2.7412494977470218e-02
    Z_51_0_3  Z_201_0_3  -2.7412494977470218e-02
    Z_627_0_0  Z_201_0_0  -3.7024963779412529e-03
    Z_627_0_1  Z_201_0_1  -3.7024963779412529e-03
    Z_627_0_2  Z_201_0_2  -3.7024963779412529e-03
    Z_627_0_3  Z_201_0_3  -3.7024963779412529e-03
ENDATA
