ilp_joint/output/camouflage_ilp.sol
# Solution for model camouflage_srl_ilp
# Objective value = 4.8402615803408739e+00
Z_403_0_0 0
Z_403_0_1 0
Z_403_0_2 0
Z_403_0_3 1
Z_510_0_0 0
Z_510_0_1 0
Z_510_0_2 0
Z_510_0_3 1
Z_510_2_0 0
Z_510_2_1 0
Z_510_2_2 1
Z_510_2_3 0
Z_510_1_0 0
Z_510_1_1 1
Z_510_1_2 0
Z_510_1_3 0
Z_154_0_0 0
Z_154_0_1 0
Z_154_0_2 1
Z_154_0_3 0
Z_154_1_0 0
Z_154_1_1 1
Z_154_1_2 0
Z_154_1_3 0
Z_154_2_0 1
Z_154_2_1 0
Z_154_2_2 0
Z_154_2_3 0
Z_125_0_0 0
Z_125_0_1 1
Z_125_0_2 0
Z_125_0_3 0
Z_433_0_0 0
Z_433_0_1 1
Z_433_0_2 0
Z_433_0_3 0
Z_51_0_0 0
Z_51_0_1 0
Z_51_0_2 0
Z_51_0_3 1
Z_627_0_0 0
Z_627_0_1 1
Z_627_0_2 0
Z_627_0_3 0
Z_201_0_0 0
Z_201_0_1 0
Z_201_0_2 0
Z_201_0_3 1
